% seed = 0

mint = 22;
% maxt = 71;

nActs = 32;
dur = [0,4,2,2,2,2,3,1,4,2,3,3,2,1,2,2,1,2,3,1,4,3,1,2,1,3,5,2,3,2,3,0];

nSkills = 15;
sreq = [| 0,0,0,0,0,0,0,0,0,0,0,0,0,0,0,
	| 0,0,0,1,0,1,0,0,0,0,0,0,1,0,0,
	| 0,0,0,1,1,0,0,0,1,0,2,0,0,0,0,
	| 0,0,0,1,1,1,1,0,0,0,1,0,0,0,0,
	| 0,0,0,0,2,1,0,0,2,0,0,0,0,0,0,
	| 0,0,0,1,0,2,0,0,0,0,1,1,0,0,0,
	| 0,0,1,0,0,1,0,0,0,1,0,0,0,0,0,
	| 0,0,0,1,0,1,0,1,2,0,0,0,0,0,0,
	| 0,0,0,1,3,0,0,0,0,0,0,0,0,0,0,
	| 0,0,0,0,0,0,0,0,1,0,0,0,0,0,0,
	| 1,0,0,0,1,1,1,0,0,0,0,0,0,2,0,
	| 0,1,0,0,0,1,0,0,0,0,0,0,0,0,0,
	| 0,0,0,0,0,0,0,1,0,0,0,0,0,0,0,
	| 0,0,2,0,0,0,0,1,1,0,0,0,0,0,0,
	| 0,1,0,0,0,0,0,1,0,1,0,0,0,0,0,
	| 0,0,0,0,0,1,0,0,0,0,0,0,0,0,0,
	| 0,0,0,1,0,0,0,0,0,0,0,0,0,1,0,
	| 0,0,0,1,0,1,0,0,0,0,0,0,0,1,0,
	| 0,0,0,1,0,0,0,0,0,0,0,0,0,0,0,
	| 0,0,1,1,0,0,1,0,0,0,0,0,0,1,0,
	| 0,0,1,0,0,1,1,0,1,0,0,0,0,0,0,
	| 0,0,0,1,0,0,0,0,0,0,1,0,0,0,1,
	| 0,0,0,0,2,0,0,0,0,0,0,0,0,0,0,
	| 0,1,0,0,0,0,0,0,0,0,0,0,0,0,0,
	| 0,0,0,0,0,0,0,0,0,0,1,0,1,0,0,
	| 1,0,0,0,0,1,0,0,0,0,1,0,1,0,0,
	| 0,0,0,1,2,1,0,0,1,0,0,0,0,1,0,
	| 0,0,0,0,0,1,0,0,0,0,0,0,0,1,0,
	| 0,0,0,1,1,2,0,0,1,0,0,0,0,1,0,
	| 0,0,0,0,0,1,0,0,0,0,0,1,0,0,0,
	| 0,0,0,0,0,0,0,0,0,1,0,0,0,0,0,
	| 0,0,0,0,0,0,0,0,0,0,0,0,0,0,0, |];

% SumOfsreq = 96;

nResources = 19;
mastery = [| false,false,false,false,false,false,false,false,false,false,false,false,true,true,true,
	| false,false,false,true,true,true,false,false,false,false,false,false,false,false,false,
	| true,true,true,false,false,false,false,false,false,false,false,false,false,true,true,
	| false,false,false,false,false,false,true,true,true,false,false,false,false,false,false,
	| false,false,false,true,true,true,false,false,false,false,false,false,false,false,false,
	| false,true,true,false,true,true,false,true,true,false,false,false,false,false,false,
	| false,false,false,false,true,true,false,false,false,false,false,false,false,false,false,
	| false,false,false,true,true,true,false,false,false,true,true,true,true,true,true,
	| false,true,true,false,false,false,false,true,true,false,false,false,false,false,false,
	| false,false,false,false,false,false,false,false,true,true,true,true,false,false,false,
	| false,false,false,false,false,false,true,true,true,false,false,false,false,false,false,
	| false,false,false,false,false,true,false,false,false,false,false,false,false,false,false,
	| false,false,false,false,true,true,false,false,false,false,false,false,false,false,false,
	| false,false,false,false,false,false,false,false,false,true,true,true,false,true,true,
	| false,false,false,false,false,false,true,true,true,false,false,false,false,false,false,
	| false,true,true,false,false,false,false,false,false,false,false,false,false,false,false,
	| false,false,false,true,true,true,false,false,false,false,false,false,false,false,false,
	| false,false,false,true,true,true,false,false,false,false,false,false,false,false,false,
	| false,false,false,false,false,false,false,false,true,false,false,false,false,false,false, |];

nPrecs = 58;
pred = [1,1,1,2,2,2,3,3,3,4,4,4,5,5,6,6,7,7,7,8,8,8,9,9,9,10,10,11,11,11,12,12,13,13,14,14,15,15,16,17,18,18,19,20,21,22,22,23,24,24,25,25,26,27,28,29,30,31];
succ = [2,3,4,11,7,16,10,12,5,19,22,8,6,15,22,31,9,28,23,25,18,14,26,13,30,17,21,18,20,22,17,23,19,31,20,21,27,21,17,24,28,24,29,29,23,25,24,31,27,30,26,28,27,29,30,32,32,32];

nUnrels = 255;
unpred = [2,2,2,2,2,2,2,2,2,2,3,3,3,3,3,3,3,3,3,3,3,4,4,4,4,4,4,4,4,4,4,4,5,5,5,5,5,5,5,5,5,5,5,5,5,6,6,6,6,6,6,6,6,6,6,6,6,6,6,6,6,7,7,7,7,7,7,7,7,7,7,7,7,7,7,8,8,8,8,8,8,8,8,8,8,9,9,9,9,9,9,9,9,9,9,9,9,9,9,9,10,10,10,10,10,10,10,10,10,10,10,10,10,11,11,11,11,11,11,11,11,11,11,12,12,12,12,12,12,12,12,12,12,12,12,13,13,13,13,13,13,13,13,13,13,13,13,13,13,13,14,14,14,14,14,14,14,14,14,14,14,14,15,15,15,15,15,15,15,15,15,15,15,16,16,16,16,16,16,16,16,16,16,17,17,17,17,17,17,17,17,17,17,18,18,18,18,18,18,18,18,19,19,19,19,19,19,19,19,19,19,19,20,20,20,20,20,20,20,20,20,20,21,21,21,21,21,21,21,21,22,22,23,23,23,23,23,23,23,24,24,24,24,25,26,26,26,27,27,27,28,28,29,29,30];
unsucc = [3,4,5,6,8,10,12,14,15,21,4,7,8,9,11,13,14,16,18,19,20,5,6,7,9,10,11,12,13,15,16,17,7,8,9,10,11,12,13,14,16,17,18,19,20,7,8,9,10,11,12,13,14,15,16,17,18,19,20,21,23,8,10,11,12,14,15,16,17,18,20,21,22,24,25,9,10,11,12,13,15,16,17,19,22,10,11,12,14,15,16,17,18,20,21,22,23,24,25,28,11,12,13,14,15,16,18,19,20,22,25,26,28,12,13,14,15,16,17,19,21,23,31,13,14,15,16,18,19,20,21,22,25,26,28,14,15,16,17,18,20,21,22,23,24,25,26,27,28,30,15,16,17,18,19,22,24,25,26,27,28,30,16,17,18,19,20,22,24,25,26,28,30,18,19,20,21,22,23,25,26,28,31,18,19,20,21,22,23,25,26,28,31,19,20,21,22,23,25,26,31,20,21,22,23,24,25,26,27,28,30,31,21,22,23,24,25,26,27,28,30,31,22,24,25,26,27,28,29,30,23,31,24,25,26,27,28,29,30,25,26,28,31,31,28,30,31,28,30,31,29,31,30,31,31];

USEFUL_RES = [{},
	{1,2,5,6,7,8,12,13,17,18},
	{2,4,5,6,7,8,9,10,11,13,14,15,17,18,19},
	{2,4,5,6,7,8,10,11,12,13,14,15,17,18},
	{2,4,5,6,7,8,9,10,11,12,13,15,17,18,19},
	{2,5,6,7,8,10,12,13,14,17,18},
	{2,3,5,6,7,8,9,10,12,13,14,16,17,18},
	{2,4,5,6,7,8,9,10,11,12,13,15,17,18,19},
	{2,5,6,7,8,13,17,18},
	{4,6,9,10,11,15,19},
	{1,2,3,4,5,6,7,8,11,12,13,14,15,17,18},
	{2,3,5,6,7,8,9,12,13,16,17,18},
	{4,6,9,11,15},
	{3,4,6,9,10,11,15,16,19},
	{3,4,6,8,9,10,11,14,15,16},
	{2,5,6,7,8,12,13,17,18},
	{1,2,3,5,8,14,17,18},
	{1,2,3,5,6,7,8,12,13,14,17,18},
	{2,5,8,17,18},
	{1,2,3,4,5,6,8,9,11,14,15,16,17,18},
	{2,3,4,5,6,7,8,9,10,11,12,13,15,16,17,18,19},
	{1,2,3,5,8,10,14,17,18},
	{2,5,6,7,8,13,17,18},
	{3,6,9,16},
	{1,8,10,14},
	{1,2,3,5,6,7,8,10,12,13,14,17,18},
	{1,2,3,4,5,6,7,8,9,10,11,12,13,14,15,17,18,19},
	{1,2,3,5,6,7,8,12,13,14,17,18},
	{1,2,3,4,5,6,7,8,9,10,11,12,13,14,15,17,18,19},
	{2,5,6,7,8,10,12,13,14,17,18},
	{8,10,14},
	{}];

POTENTIAL_ACT = [{2,11,17,18,20,22,25,26,27,28,29},
	{2,3,4,5,6,7,8,9,11,12,16,17,18,19,20,21,22,23,26,27,28,29,30},
	{7,11,12,14,15,17,18,20,21,22,24,26,27,28,29},
	{3,4,5,8,10,11,13,14,15,20,21,27,29},
	{2,3,4,5,6,7,8,9,11,12,16,17,18,19,20,21,22,23,26,27,28,29,30},
	{2,3,4,5,6,7,8,9,10,11,12,13,14,15,16,18,20,21,23,24,26,27,28,29,30},
	{2,3,4,5,6,7,8,9,11,12,16,18,21,23,26,27,28,29,30},
	{2,3,4,5,6,7,8,9,11,12,15,16,17,18,19,20,21,22,23,25,26,27,28,29,30,31},
	{3,5,7,8,10,12,13,14,15,20,21,24,27,29},
	{3,4,5,6,7,8,10,14,15,21,22,25,26,27,29,30,31},
	{3,4,5,8,10,11,13,14,15,20,21,27,29},
	{2,4,5,6,7,8,11,12,16,18,21,26,27,28,29,30},
	{2,3,4,5,6,7,8,9,11,12,16,18,21,23,26,27,28,29,30},
	{3,4,6,7,11,15,17,18,20,22,25,26,27,28,29,30,31},
	{3,4,5,8,10,11,13,14,15,20,21,27,29},
	{7,12,14,15,20,21,24},
	{2,3,4,5,6,7,8,9,11,12,16,17,18,19,20,21,22,23,26,27,28,29,30},
	{2,3,4,5,6,7,8,9,11,12,16,17,18,19,20,21,22,23,26,27,28,29,30},
	{3,5,8,10,14,21,27,29}];
